qe/outputs/qe/cbrdelay_l0_discretize/T=5,eliminate=[I_0,I_1,I_2,I_3,I_4,L_1,L_2,L_3,L_4,lhs=L_0],pl=0.smt2
; benchmark generated from python API
(set-info :status unknown)
(declare-fun S_4 () Real)
(declare-fun S_1 () Real)
(declare-fun A_1 () Real)
(declare-fun B () Real)
(declare-fun A_4 () Real)
(declare-fun C () Real)
(declare-fun S_0 () Real)
(declare-fun S_2 () Real)
(declare-fun S_3 () Real)
(declare-fun L0 () Real)
(declare-fun A_2 () Real)
(declare-fun A_3 () Real)
(declare-fun L_0 () Real)
(declare-fun A_0 () Real)
(assert
 (let ((?x318 (* (- 1.0) S_1)))
 (let ((?x544 (* (- 1.0) B)))
 (let ((?x496 (* (- 1.0) A_4)))
 (let ((?x325 (* (- 1.0) C)))
 (let (($x37 (>= L0 0.0)))
 (let (($x557 (>= C 5.0)))
 (let (($x744 (>= B 5.0)))
 (let ((?x891 (* (- 1.0) S_0)))
 (let ((?x504 (* (- 1.0) A_2)))
 (let ((?x1171 (* (- 3.0) C)))
 (let ((?x1375 (* (- 2.0) B)))
 (let (($x15233 (<= (+ ?x1375 (* (- 2.0) C) ?x496 A_3 ?x504 A_1 ?x318 S_4) 0.0)))
 (let (($x15226 (<= (+ ?x1375 ?x325 ?x496 A_3 ?x504 A_1 (* (- 1.0) S_2) S_4) 0.0)))
 (let (($x13600 (<= (+ ?x325 ?x504 A_3) 0.0)))
 (let (($x13953 (not $x13600)))
 (let (($x13935 (<= (+ (* 2.0 C) S_1 (* (- 1.0) S_4)) 0.0)))
 (let (($x13587 (<= (+ ?x325 (* (- 1.0) A_1) A_2) 0.0)))
 (let (($x13844 (not $x13587)))
 (let (($x12442 (<= (+ C A_1 (* (- 1.0) L_0) ?x544 (* (- 1.0) S_3)) 0.0)))
 (let (($x1535 (<= (+ A_3 B (* (- 1.0) A_1) S_1 (* (- 1.0) S_4)) 0.0)))
 (let (($x14722 (<= (+ C (* (- 1.0) A_1) B A_3 (* (- 1.0) S_4) S_0) 0.0)))
 (let (($x14118 (<= (+ (* 3.0 C) (* (- 1.0) S_4) S_0) 0.0)))
 (let (($x12894 (<= (+ ?x325 A_2 (* (- 1.0) A_1) B) 0.0)))
 (let (($x22058 (or $x12894 (<= (+ C A_1 ?x544 ?x496 (* (- 1.0) S_3) S_4) 0.0))))
 (let (($x21875 (or (<= (+ A_1 ?x544 (* (- 1.0) A_3) (* (- 1.0) S_3) S_4) 0.0) $x12894)))
 (let (($x14842 (<= (+ (* (- 2.0) C) (* (- 1.0) A_3) ?x544 A_1 ?x318 S_4) 0.0)))
 (let (($x14093 (<= (+ C S_2 (* (- 1.0) S_4)) 0.0)))
 (let (($x13642 (<= (+ ?x325 (* (- 1.0) A_1) B A_3 S_2 (* (- 1.0) S_4)) 0.0)))
 (let (($x22318 (or (<= (+ ?x504 B A_3 S_2 (* (- 1.0) S_4)) 0.0) $x12442 $x13642 $x14093)))
 (let (($x969 (<= (+ A_3 (* (- 1.0) L_0) (* (- 1.0) S_4)) 0.0)))
 (let (($x14032 (<= (+ ?x544 (* (- 2.0) C) ?x496 A_3 (* (- 1.0) S_2) S_4) 0.0)))
 (let (($x14312 (<= (+ (* (- 2.0) C) (* (- 1.0) A_3) ?x544 A_1 S_3 ?x891) 0.0)))
 (let (($x14823 (<= (+ ?x325 (* (- 1.0) A_3) ?x544 A_1 (* (- 1.0) S_2) S_4) 0.0)))
 (let (($x12549 (not $x12894)))
 (let (($x21528 (or $x12549 (<= (+ ?x325 A_2 (* (- 1.0) A_3) (* (- 1.0) S_3) S_4) 0.0))))
 (let (($x14551 (<= (+ (* (- 2.0) C) ?x504 A_1 ?x544 (* (- 1.0) S_2) S_4) 0.0)))
 (let (($x14493 (<= (+ C A_2 (* (- 1.0) A_1) B S_1 (* (- 1.0) S_4)) 0.0)))
 (let ((?x515 (* (- 1.0) S_4)))
 (let ((?x508 (* (- 1.0) A_1)))
 (let ((?x803 (* 2.0 C)))
 (let (($x12415 (<= (+ ?x803 A_2 ?x508 B ?x515 S_0) 0.0)))
 (let (($x13839 (<= (+ (* (- 2.0) C) A_2 ?x544 (* (- 1.0) A_3) S_3 ?x318) 0.0)))
 (let ((?x335 (* (- 1.0) S_2)))
 (let ((?x500 (* (- 1.0) A_3)))
 (let ((?x801 (* (- 2.0) C)))
 (let (($x13802 (or (<= (+ A_2 B ?x508 (* (- 1.0) S_3) S_1) 0.0) (<= (+ C (* (- 1.0) S_3) S_1) 0.0))))
 (let (($x13656 (or (<= (+ ?x803 (* (- 1.0) S_3) S_0) 0.0) (<= (+ C A_2 ?x508 B (* (- 1.0) S_3) S_0) 0.0))))
 (let (($x36 (>= L_0 L0)))
 (let (($x111 (>= S_1 S_0)))
 (let (($x114 (>= S_2 S_1)))
 (let (($x117 (>= S_3 S_2)))
 (let (($x120 (>= S_4 S_3)))
 (let (($x122 (>= A_1 A_0)))
 (let (($x123 (>= A_2 A_1)))
 (let (($x124 (>= A_3 A_2)))
 (let (($x125 (>= A_4 A_3)))
 (and (not (<= (+ A_0 (* (- 1.0) L_0)) S_3)) $x125 $x124 $x123 $x122 $x120 $x117 $x114 $x111 $x36 $x13656 $x13802 (<= (+ ?x325 ?x504 ?x544 A_1 S_2 ?x318) 0.0) (<= (+ ?x1171 A_2 ?x544 ?x500 S_3 ?x891) 0.0) (<= (+ (* (- 4.0) C) A_2 ?x544 ?x500 S_4 ?x891) 0.0) (<= (+ ?x325 A_2 ?x544 ?x500 (* (- 1.0) S_3) S_4) 0.0) (or $x13587 (<= (+ C ?x504 B A_3 S_1 ?x515) 0.0) $x13935) (or $x13587 $x14118 (<= (+ ?x803 ?x504 B A_3 ?x515 S_0) 0.0)) (<= (+ ?x325 A_2 ?x544 ?x500 S_3 ?x335) 0.0) (<= (+ ?x801 A_2 ?x544 ?x500 ?x335 S_4) 0.0) (<= (+ ?x1171 A_2 ?x544 ?x500 ?x318 S_4) 0.0) $x13839 (or (<= (+ ?x504 A_3 S_2 ?x515) 0.0) $x14093) (<= (+ ?x325 A_2 ?x544 ?x496 ?x335 S_4) 0.0) (<= (+ ?x500 ?x544 A_1 S_3 ?x335) 0.0) (<= (+ ?x801 A_2 ?x544 ?x496 ?x318 S_4) 0.0) (<= (+ A_2 ?x544 ?x496 (* (- 1.0) S_3) S_4) 0.0) (or $x969 $x1535 (<= (+ ?x325 ?x504 B A_3) 0.0) $x12894 $x13935) (or $x969 $x1535 (<= (+ ?x325 ?x504 B A_3) 0.0) $x12894 $x14118) (or $x12415 $x12549 (<= 0.0 (+ C A_2 B ?x500))) (or $x12415 $x13600 $x14118) (<= (+ ?x801 ?x504 A_1 ?x544 S_3 ?x318) 0.0) (<= (+ ?x1171 ?x504 A_1 ?x544 ?x318 S_4) 0.0) (<= (+ ?x1171 ?x504 A_1 ?x544 S_3 ?x891) 0.0) (<= (+ ?x801 ?x504 ?x544 A_1 S_2 ?x891) 0.0) (or $x1535 $x12549 $x14493) (<= (+ (* (- 4.0) C) ?x504 A_1 ?x544 S_4 ?x891) 0.0) (<= (+ ?x325 ?x504 A_1 ?x544 S_3 ?x335) 0.0) (<= (+ ?x1171 A_2 ?x544 ?x496 S_4 ?x891) 0.0) (<= (+ L_0 ?x496 S_4) 0.0) $x14551 (<= (+ ?x801 ?x496 ?x544 A_1 S_4 ?x891) 0.0) (or $x12549 $x13953 $x14722) (<= (+ ?x544 ?x1171 ?x496 A_3 ?x318 S_4) 0.0) (<= (+ ?x544 ?x325 ?x496 A_3 (* (- 1.0) S_3) S_4) 0.0) (<= (+ ?x325 ?x500 ?x544 A_1 S_3 ?x318) 0.0) $x21528 $x14823 $x14312 (<= (+ ?x1171 ?x500 ?x544 A_1 S_4 ?x891) 0.0) (<= (+ ?x496 ?x544 A_1 ?x335 S_4) 0.0) $x14032 (or $x969 (<= (+ ?x325 ?x504 B A_3) 0.0) $x13953 $x14118 $x14722) (or (<= (+ A_2 ?x496 (* (- 1.0) S_3) S_4) 0.0) $x12549) (or $x969 $x13642 (not $x12442) $x14093) $x22318 $x14842 $x21875 $x22058 (<= (+ ?x325 ?x500 L_0 S_4) 0.0) (or $x12442 $x13844 $x13953 $x14118 $x14722) (<= (+ ?x544 (* (- 4.0) C) ?x496 A_3 S_4 ?x891) 0.0) (or $x1535 $x12442 $x13844 $x13935 $x13953) $x15226 $x15233 (<= (+ ?x1375 ?x1171 ?x496 A_3 ?x504 A_1 S_4 ?x891) 0.0) $x744 $x557 $x37 (<= (+ C ?x335 S_0) 0.0) (<= (+ ?x1171 S_2 ?x891) 0.0) (<= (+ ?x801 S_1 ?x891) 0.0) (<= (+ ?x801 S_2 ?x318) 0.0) (<= (+ ?x801 (* (- 1.0) S_3) S_4) 0.0) (<= (+ (* (- 4.0) C) S_3 ?x891) 0.0) (<= (+ ?x801 S_3 ?x335) 0.0) (<= (+ ?x1171 S_3 ?x318) 0.0) (<= (+ (* (- 4.0) C) ?x318 S_4) 0.0) (<= (+ ?x1171 ?x335 S_4) 0.0) (<= (+ (* (- 5.0) C) S_4 ?x891) 0.0) (<= (+ ?x325 ?x496 ?x544 A_1 ?x318 S_4) 0.0)))))))))))))))))))))))))))))))))))))))))))))))))))))))))))
(check-sat)
